c t mc
c file track1_037.cnf
p cnf 120 1129
-1 41 -81 0
1 -41 -81 0
-1 -41 -81 0
-2 42 -82 0
2 -42 -82 0
-2 -42 -82 0
-3 43 -83 0
3 -43 -83 0
-3 -43 -83 0
-4 44 -84 0
4 -44 -84 0
-4 -44 -84 0
-5 45 -85 0
5 -45 -85 0
-5 -45 -85 0
-6 46 -86 0
6 -46 -86 0
-6 -46 -86 0
-7 47 -87 0
7 -47 -87 0
-7 -47 -87 0
-8 48 -88 0
8 -48 -88 0
-8 -48 -88 0
-9 49 -89 0
9 -49 -89 0
-9 -49 -89 0
-10 50 -90 0
10 -50 -90 0
-10 -50 -90 0
-11 51 -91 0
11 -51 -91 0
-11 -51 -91 0
-12 52 -92 0
12 -52 -92 0
-12 -52 -92 0
-13 53 -93 0
13 -53 -93 0
-13 -53 -93 0
-14 54 -94 0
14 -54 -94 0
-14 -54 -94 0
-15 55 -95 0
15 -55 -95 0
-15 -55 -95 0
-16 56 -96 0
16 -56 -96 0
-16 -56 -96 0
-17 57 -97 0
17 -57 -97 0
-17 -57 -97 0
-18 58 -98 0
18 -58 -98 0
-18 -58 -98 0
-19 59 -99 0
19 -59 -99 0
-19 -59 -99 0
-20 60 -100 0
20 -60 -100 0
-20 -60 -100 0
-21 61 -101 0
21 -61 -101 0
-21 -61 -101 0
-22 62 -102 0
22 -62 -102 0
-22 -62 -102 0
-23 63 -103 0
23 -63 -103 0
-23 -63 -103 0
-24 64 -104 0
24 -64 -104 0
-24 -64 -104 0
-25 65 -105 0
25 -65 -105 0
-25 -65 -105 0
-26 66 -106 0
26 -66 -106 0
-26 -66 -106 0
-27 67 -107 0
27 -67 -107 0
-27 -67 -107 0
-28 68 -108 0
28 -68 -108 0
-28 -68 -108 0
-29 69 -109 0
29 -69 -109 0
-29 -69 -109 0
-30 70 -110 0
30 -70 -110 0
-30 -70 -110 0
-31 71 -111 0
31 -71 -111 0
-31 -71 -111 0
-32 72 -112 0
32 -72 -112 0
-32 -72 -112 0
-33 73 -113 0
33 -73 -113 0
-33 -73 -113 0
-34 74 -114 0
34 -74 -114 0
-34 -74 -114 0
-35 75 -115 0
35 -75 -115 0
-35 -75 -115 0
-36 76 -116 0
36 -76 -116 0
-36 -76 -116 0
-37 77 -117 0
37 -77 -117 0
-37 -77 -117 0
-38 78 -118 0
38 -78 -118 0
-38 -78 -118 0
-39 79 -119 0
39 -79 -119 0
-39 -79 -119 0
-40 80 -120 0
40 -80 -120 0
-40 -80 -120 0
-1 0
-41 0
-81 0
37 0
-77 0
-117 0
-40 0
80 0
-120 0
1 41 81 37 77 117 0
-1 41 81 -37 77 117 0
1 -41 81 37 -77 117 0
-1 -41 81 -37 -77 117 0
1 41 -81 37 77 -117 0
1 41 81 2 42 82 0
-1 41 81 -2 42 82 0
1 -41 81 2 -42 82 0
-1 -41 81 -2 -42 82 0
1 41 -81 2 42 -82 0
1 41 81 10 50 90 0
-1 41 81 -10 50 90 0
1 -41 81 10 -50 90 0
-1 -41 81 -10 -50 90 0
1 41 -81 10 50 -90 0
1 41 81 33 73 113 0
-1 41 81 -33 73 113 0
1 -41 81 33 -73 113 0
-1 -41 81 -33 -73 113 0
1 41 -81 33 73 -113 0
1 41 81 30 70 110 0
-1 41 81 -30 70 110 0
1 -41 81 30 -70 110 0
-1 -41 81 -30 -70 110 0
1 41 -81 30 70 -110 0
1 41 81 28 68 108 0
-1 41 81 -28 68 108 0
1 -41 81 28 -68 108 0
-1 -41 81 -28 -68 108 0
1 41 -81 28 68 -108 0
1 41 81 13 53 93 0
-1 41 81 -13 53 93 0
1 -41 81 13 -53 93 0
-1 -41 81 -13 -53 93 0
1 41 -81 13 53 -93 0
1 41 81 40 80 120 0
-1 41 81 -40 80 120 0
1 -41 81 40 -80 120 0
-1 -41 81 -40 -80 120 0
1 41 -81 40 80 -120 0
1 41 81 22 62 102 0
-1 41 81 -22 62 102 0
1 -41 81 22 -62 102 0
-1 -41 81 -22 -62 102 0
1 41 -81 22 62 -102 0
1 41 81 39 79 119 0
-1 41 81 -39 79 119 0
1 -41 81 39 -79 119 0
-1 -41 81 -39 -79 119 0
1 41 -81 39 79 -119 0
2 42 82 5 45 85 0
-2 42 82 -5 45 85 0
2 -42 82 5 -45 85 0
-2 -42 82 -5 -45 85 0
2 42 -82 5 45 -85 0
2 42 82 7 47 87 0
-2 42 82 -7 47 87 0
2 -42 82 7 -47 87 0
-2 -42 82 -7 -47 87 0
2 42 -82 7 47 -87 0
2 42 82 34 74 114 0
-2 42 82 -34 74 114 0
2 -42 82 34 -74 114 0
-2 -42 82 -34 -74 114 0
2 42 -82 34 74 -114 0
2 42 82 17 57 97 0
-2 42 82 -17 57 97 0
2 -42 82 17 -57 97 0
-2 -42 82 -17 -57 97 0
2 42 -82 17 57 -97 0
2 42 82 30 70 110 0
-2 42 82 -30 70 110 0
2 -42 82 30 -70 110 0
-2 -42 82 -30 -70 110 0
2 42 -82 30 70 -110 0
2 42 82 17 57 97 0
-2 42 82 -17 57 97 0
2 -42 82 17 -57 97 0
-2 -42 82 -17 -57 97 0
2 42 -82 17 57 -97 0
2 42 82 8 48 88 0
-2 42 82 -8 48 88 0
2 -42 82 8 -48 88 0
-2 -42 82 -8 -48 88 0
2 42 -82 8 48 -88 0
2 42 82 23 63 103 0
-2 42 82 -23 63 103 0
2 -42 82 23 -63 103 0
-2 -42 82 -23 -63 103 0
2 42 -82 23 63 -103 0
2 42 82 28 68 108 0
-2 42 82 -28 68 108 0
2 -42 82 28 -68 108 0
-2 -42 82 -28 -68 108 0
2 42 -82 28 68 -108 0
3 43 83 5 45 85 0
-3 43 83 -5 45 85 0
3 -43 83 5 -45 85 0
-3 -43 83 -5 -45 85 0
3 43 -83 5 45 -85 0
3 43 83 10 50 90 0
-3 43 83 -10 50 90 0
3 -43 83 10 -50 90 0
-3 -43 83 -10 -50 90 0
3 43 -83 10 50 -90 0
3 43 83 25 65 105 0
-3 43 83 -25 65 105 0
3 -43 83 25 -65 105 0
-3 -43 83 -25 -65 105 0
3 43 -83 25 65 -105 0
3 43 83 12 52 92 0
-3 43 83 -12 52 92 0
3 -43 83 12 -52 92 0
-3 -43 83 -12 -52 92 0
3 43 -83 12 52 -92 0
3 43 83 4 44 84 0
-3 43 83 -4 44 84 0
3 -43 83 4 -44 84 0
-3 -43 83 -4 -44 84 0
3 43 -83 4 44 -84 0
3 43 83 11 51 91 0
-3 43 83 -11 51 91 0
3 -43 83 11 -51 91 0
-3 -43 83 -11 -51 91 0
3 43 -83 11 51 -91 0
3 43 83 9 49 89 0
-3 43 83 -9 49 89 0
3 -43 83 9 -49 89 0
-3 -43 83 -9 -49 89 0
3 43 -83 9 49 -89 0
3 43 83 38 78 118 0
-3 43 83 -38 78 118 0
3 -43 83 38 -78 118 0
-3 -43 83 -38 -78 118 0
3 43 -83 38 78 -118 0
3 43 83 39 79 119 0
-3 43 83 -39 79 119 0
3 -43 83 39 -79 119 0
-3 -43 83 -39 -79 119 0
3 43 -83 39 79 -119 0
3 43 83 11 51 91 0
-3 43 83 -11 51 91 0
3 -43 83 11 -51 91 0
-3 -43 83 -11 -51 91 0
3 43 -83 11 51 -91 0
4 44 84 9 49 89 0
-4 44 84 -9 49 89 0
4 -44 84 9 -49 89 0
-4 -44 84 -9 -49 89 0
4 44 -84 9 49 -89 0
4 44 84 27 67 107 0
-4 44 84 -27 67 107 0
4 -44 84 27 -67 107 0
-4 -44 84 -27 -67 107 0
4 44 -84 27 67 -107 0
4 44 84 33 73 113 0
-4 44 84 -33 73 113 0
4 -44 84 33 -73 113 0
-4 -44 84 -33 -73 113 0
4 44 -84 33 73 -113 0
4 44 84 23 63 103 0
-4 44 84 -23 63 103 0
4 -44 84 23 -63 103 0
-4 -44 84 -23 -63 103 0
4 44 -84 23 63 -103 0
4 44 84 29 69 109 0
-4 44 84 -29 69 109 0
4 -44 84 29 -69 109 0
-4 -44 84 -29 -69 109 0
4 44 -84 29 69 -109 0
4 44 84 35 75 115 0
-4 44 84 -35 75 115 0
4 -44 84 35 -75 115 0
-4 -44 84 -35 -75 115 0
4 44 -84 35 75 -115 0
4 44 84 15 55 95 0
-4 44 84 -15 55 95 0
4 -44 84 15 -55 95 0
-4 -44 84 -15 -55 95 0
4 44 -84 15 55 -95 0
4 44 84 36 76 116 0
-4 44 84 -36 76 116 0
4 -44 84 36 -76 116 0
-4 -44 84 -36 -76 116 0
4 44 -84 36 76 -116 0
4 44 84 24 64 104 0
-4 44 84 -24 64 104 0
4 -44 84 24 -64 104 0
-4 -44 84 -24 -64 104 0
4 44 -84 24 64 -104 0
5 45 85 26 66 106 0
-5 45 85 -26 66 106 0
5 -45 85 26 -66 106 0
-5 -45 85 -26 -66 106 0
5 45 -85 26 66 -106 0
5 45 85 19 59 99 0
-5 45 85 -19 59 99 0
5 -45 85 19 -59 99 0
-5 -45 85 -19 -59 99 0
5 45 -85 19 59 -99 0
5 45 85 18 58 98 0
-5 45 85 -18 58 98 0
5 -45 85 18 -58 98 0
-5 -45 85 -18 -58 98 0
5 45 -85 18 58 -98 0
5 45 85 24 64 104 0
-5 45 85 -24 64 104 0
5 -45 85 24 -64 104 0
-5 -45 85 -24 -64 104 0
5 45 -85 24 64 -104 0
5 45 85 15 55 95 0
-5 45 85 -15 55 95 0
5 -45 85 15 -55 95 0
-5 -45 85 -15 -55 95 0
5 45 -85 15 55 -95 0
5 45 85 19 59 99 0
-5 45 85 -19 59 99 0
5 -45 85 19 -59 99 0
-5 -45 85 -19 -59 99 0
5 45 -85 19 59 -99 0
5 45 85 25 65 105 0
-5 45 85 -25 65 105 0
5 -45 85 25 -65 105 0
-5 -45 85 -25 -65 105 0
5 45 -85 25 65 -105 0
5 45 85 35 75 115 0
-5 45 85 -35 75 115 0
5 -45 85 35 -75 115 0
-5 -45 85 -35 -75 115 0
5 45 -85 35 75 -115 0
6 46 86 28 68 108 0
-6 46 86 -28 68 108 0
6 -46 86 28 -68 108 0
-6 -46 86 -28 -68 108 0
6 46 -86 28 68 -108 0
6 46 86 14 54 94 0
-6 46 86 -14 54 94 0
6 -46 86 14 -54 94 0
-6 -46 86 -14 -54 94 0
6 46 -86 14 54 -94 0
6 46 86 9 49 89 0
-6 46 86 -9 49 89 0
6 -46 86 9 -49 89 0
-6 -46 86 -9 -49 89 0
6 46 -86 9 49 -89 0
6 46 86 13 53 93 0
-6 46 86 -13 53 93 0
6 -46 86 13 -53 93 0
-6 -46 86 -13 -53 93 0
6 46 -86 13 53 -93 0
6 46 86 28 68 108 0
-6 46 86 -28 68 108 0
6 -46 86 28 -68 108 0
-6 -46 86 -28 -68 108 0
6 46 -86 28 68 -108 0
6 46 86 23 63 103 0
-6 46 86 -23 63 103 0
6 -46 86 23 -63 103 0
-6 -46 86 -23 -63 103 0
6 46 -86 23 63 -103 0
6 46 86 28 68 108 0
-6 46 86 -28 68 108 0
6 -46 86 28 -68 108 0
-6 -46 86 -28 -68 108 0
6 46 -86 28 68 -108 0
6 46 86 34 74 114 0
-6 46 86 -34 74 114 0
6 -46 86 34 -74 114 0
-6 -46 86 -34 -74 114 0
6 46 -86 34 74 -114 0
6 46 86 37 77 117 0
-6 46 86 -37 77 117 0
6 -46 86 37 -77 117 0
-6 -46 86 -37 -77 117 0
6 46 -86 37 77 -117 0
6 46 86 14 54 94 0
-6 46 86 -14 54 94 0
6 -46 86 14 -54 94 0
-6 -46 86 -14 -54 94 0
6 46 -86 14 54 -94 0
7 47 87 20 60 100 0
-7 47 87 -20 60 100 0
7 -47 87 20 -60 100 0
-7 -47 87 -20 -60 100 0
7 47 -87 20 60 -100 0
7 47 87 23 63 103 0
-7 47 87 -23 63 103 0
7 -47 87 23 -63 103 0
-7 -47 87 -23 -63 103 0
7 47 -87 23 63 -103 0
7 47 87 27 67 107 0
-7 47 87 -27 67 107 0
7 -47 87 27 -67 107 0
-7 -47 87 -27 -67 107 0
7 47 -87 27 67 -107 0
7 47 87 23 63 103 0
-7 47 87 -23 63 103 0
7 -47 87 23 -63 103 0
-7 -47 87 -23 -63 103 0
7 47 -87 23 63 -103 0
7 47 87 31 71 111 0
-7 47 87 -31 71 111 0
7 -47 87 31 -71 111 0
-7 -47 87 -31 -71 111 0
7 47 -87 31 71 -111 0
7 47 87 33 73 113 0
-7 47 87 -33 73 113 0
7 -47 87 33 -73 113 0
-7 -47 87 -33 -73 113 0
7 47 -87 33 73 -113 0
7 47 87 36 76 116 0
-7 47 87 -36 76 116 0
7 -47 87 36 -76 116 0
-7 -47 87 -36 -76 116 0
7 47 -87 36 76 -116 0
7 47 87 17 57 97 0
-7 47 87 -17 57 97 0
7 -47 87 17 -57 97 0
-7 -47 87 -17 -57 97 0
7 47 -87 17 57 -97 0
7 47 87 20 60 100 0
-7 47 87 -20 60 100 0
7 -47 87 20 -60 100 0
-7 -47 87 -20 -60 100 0
7 47 -87 20 60 -100 0
8 48 88 16 56 96 0
-8 48 88 -16 56 96 0
8 -48 88 16 -56 96 0
-8 -48 88 -16 -56 96 0
8 48 -88 16 56 -96 0
8 48 88 13 53 93 0
-8 48 88 -13 53 93 0
8 -48 88 13 -53 93 0
-8 -48 88 -13 -53 93 0
8 48 -88 13 53 -93 0
8 48 88 22 62 102 0
-8 48 88 -22 62 102 0
8 -48 88 22 -62 102 0
-8 -48 88 -22 -62 102 0
8 48 -88 22 62 -102 0
8 48 88 29 69 109 0
-8 48 88 -29 69 109 0
8 -48 88 29 -69 109 0
-8 -48 88 -29 -69 109 0
8 48 -88 29 69 -109 0
8 48 88 18 58 98 0
-8 48 88 -18 58 98 0
8 -48 88 18 -58 98 0
-8 -48 88 -18 -58 98 0
8 48 -88 18 58 -98 0
8 48 88 34 74 114 0
-8 48 88 -34 74 114 0
8 -48 88 34 -74 114 0
-8 -48 88 -34 -74 114 0
8 48 -88 34 74 -114 0
8 48 88 19 59 99 0
-8 48 88 -19 59 99 0
8 -48 88 19 -59 99 0
-8 -48 88 -19 -59 99 0
8 48 -88 19 59 -99 0
8 48 88 35 75 115 0
-8 48 88 -35 75 115 0
8 -48 88 35 -75 115 0
-8 -48 88 -35 -75 115 0
8 48 -88 35 75 -115 0
8 48 88 37 77 117 0
-8 48 88 -37 77 117 0
8 -48 88 37 -77 117 0
-8 -48 88 -37 -77 117 0
8 48 -88 37 77 -117 0
9 49 89 29 69 109 0
-9 49 89 -29 69 109 0
9 -49 89 29 -69 109 0
-9 -49 89 -29 -69 109 0
9 49 -89 29 69 -109 0
9 49 89 25 65 105 0
-9 49 89 -25 65 105 0
9 -49 89 25 -65 105 0
-9 -49 89 -25 -65 105 0
9 49 -89 25 65 -105 0
9 49 89 30 70 110 0
-9 49 89 -30 70 110 0
9 -49 89 30 -70 110 0
-9 -49 89 -30 -70 110 0
9 49 -89 30 70 -110 0
9 49 89 40 80 120 0
-9 49 89 -40 80 120 0
9 -49 89 40 -80 120 0
-9 -49 89 -40 -80 120 0
9 49 -89 40 80 -120 0
9 49 89 38 78 118 0
-9 49 89 -38 78 118 0
9 -49 89 38 -78 118 0
-9 -49 89 -38 -78 118 0
9 49 -89 38 78 -118 0
9 49 89 32 72 112 0
-9 49 89 -32 72 112 0
9 -49 89 32 -72 112 0
-9 -49 89 -32 -72 112 0
9 49 -89 32 72 -112 0
9 49 89 38 78 118 0
-9 49 89 -38 78 118 0
9 -49 89 38 -78 118 0
-9 -49 89 -38 -78 118 0
9 49 -89 38 78 -118 0
10 50 90 40 80 120 0
-10 50 90 -40 80 120 0
10 -50 90 40 -80 120 0
-10 -50 90 -40 -80 120 0
10 50 -90 40 80 -120 0
10 50 90 19 59 99 0
-10 50 90 -19 59 99 0
10 -50 90 19 -59 99 0
-10 -50 90 -19 -59 99 0
10 50 -90 19 59 -99 0
10 50 90 20 60 100 0
-10 50 90 -20 60 100 0
10 -50 90 20 -60 100 0
-10 -50 90 -20 -60 100 0
10 50 -90 20 60 -100 0
10 50 90 14 54 94 0
-10 50 90 -14 54 94 0
10 -50 90 14 -54 94 0
-10 -50 90 -14 -54 94 0
10 50 -90 14 54 -94 0
10 50 90 39 79 119 0
-10 50 90 -39 79 119 0
10 -50 90 39 -79 119 0
-10 -50 90 -39 -79 119 0
10 50 -90 39 79 -119 0
10 50 90 12 52 92 0
-10 50 90 -12 52 92 0
10 -50 90 12 -52 92 0
-10 -50 90 -12 -52 92 0
10 50 -90 12 52 -92 0
10 50 90 31 71 111 0
-10 50 90 -31 71 111 0
10 -50 90 31 -71 111 0
-10 -50 90 -31 -71 111 0
10 50 -90 31 71 -111 0
10 50 90 14 54 94 0
-10 50 90 -14 54 94 0
10 -50 90 14 -54 94 0
-10 -50 90 -14 -54 94 0
10 50 -90 14 54 -94 0
11 51 91 21 61 101 0
-11 51 91 -21 61 101 0
11 -51 91 21 -61 101 0
-11 -51 91 -21 -61 101 0
11 51 -91 21 61 -101 0
11 51 91 19 59 99 0
-11 51 91 -19 59 99 0
11 -51 91 19 -59 99 0
-11 -51 91 -19 -59 99 0
11 51 -91 19 59 -99 0
11 51 91 36 76 116 0
-11 51 91 -36 76 116 0
11 -51 91 36 -76 116 0
-11 -51 91 -36 -76 116 0
11 51 -91 36 76 -116 0
11 51 91 28 68 108 0
-11 51 91 -28 68 108 0
11 -51 91 28 -68 108 0
-11 -51 91 -28 -68 108 0
11 51 -91 28 68 -108 0
11 51 91 40 80 120 0
-11 51 91 -40 80 120 0
11 -51 91 40 -80 120 0
-11 -51 91 -40 -80 120 0
11 51 -91 40 80 -120 0
11 51 91 33 73 113 0
-11 51 91 -33 73 113 0
11 -51 91 33 -73 113 0
-11 -51 91 -33 -73 113 0
11 51 -91 33 73 -113 0
11 51 91 33 73 113 0
-11 51 91 -33 73 113 0
11 -51 91 33 -73 113 0
-11 -51 91 -33 -73 113 0
11 51 -91 33 73 -113 0
11 51 91 34 74 114 0
-11 51 91 -34 74 114 0
11 -51 91 34 -74 114 0
-11 -51 91 -34 -74 114 0
11 51 -91 34 74 -114 0
12 52 92 25 65 105 0
-12 52 92 -25 65 105 0
12 -52 92 25 -65 105 0
-12 -52 92 -25 -65 105 0
12 52 -92 25 65 -105 0
12 52 92 21 61 101 0
-12 52 92 -21 61 101 0
12 -52 92 21 -61 101 0
-12 -52 92 -21 -61 101 0
12 52 -92 21 61 -101 0
12 52 92 28 68 108 0
-12 52 92 -28 68 108 0
12 -52 92 28 -68 108 0
-12 -52 92 -28 -68 108 0
12 52 -92 28 68 -108 0
12 52 92 27 67 107 0
-12 52 92 -27 67 107 0
12 -52 92 27 -67 107 0
-12 -52 92 -27 -67 107 0
12 52 -92 27 67 -107 0
12 52 92 22 62 102 0
-12 52 92 -22 62 102 0
12 -52 92 22 -62 102 0
-12 -52 92 -22 -62 102 0
12 52 -92 22 62 -102 0
12 52 92 21 61 101 0
-12 52 92 -21 61 101 0
12 -52 92 21 -61 101 0
-12 -52 92 -21 -61 101 0
12 52 -92 21 61 -101 0
12 52 92 14 54 94 0
-12 52 92 -14 54 94 0
12 -52 92 14 -54 94 0
-12 -52 92 -14 -54 94 0
12 52 -92 14 54 -94 0
12 52 92 15 55 95 0
-12 52 92 -15 55 95 0
12 -52 92 15 -55 95 0
-12 -52 92 -15 -55 95 0
12 52 -92 15 55 -95 0
13 53 93 32 72 112 0
-13 53 93 -32 72 112 0
13 -53 93 32 -72 112 0
-13 -53 93 -32 -72 112 0
13 53 -93 32 72 -112 0
13 53 93 25 65 105 0
-13 53 93 -25 65 105 0
13 -53 93 25 -65 105 0
-13 -53 93 -25 -65 105 0
13 53 -93 25 65 -105 0
13 53 93 31 71 111 0
-13 53 93 -31 71 111 0
13 -53 93 31 -71 111 0
-13 -53 93 -31 -71 111 0
13 53 -93 31 71 -111 0
13 53 93 27 67 107 0
-13 53 93 -27 67 107 0
13 -53 93 27 -67 107 0
-13 -53 93 -27 -67 107 0
13 53 -93 27 67 -107 0
13 53 93 37 77 117 0
-13 53 93 -37 77 117 0
13 -53 93 37 -77 117 0
-13 -53 93 -37 -77 117 0
13 53 -93 37 77 -117 0
13 53 93 31 71 111 0
-13 53 93 -31 71 111 0
13 -53 93 31 -71 111 0
-13 -53 93 -31 -71 111 0
13 53 -93 31 71 -111 0
13 53 93 16 56 96 0
-13 53 93 -16 56 96 0
13 -53 93 16 -56 96 0
-13 -53 93 -16 -56 96 0
13 53 -93 16 56 -96 0
14 54 94 30 70 110 0
-14 54 94 -30 70 110 0
14 -54 94 30 -70 110 0
-14 -54 94 -30 -70 110 0
14 54 -94 30 70 -110 0
14 54 94 31 71 111 0
-14 54 94 -31 71 111 0
14 -54 94 31 -71 111 0
-14 -54 94 -31 -71 111 0
14 54 -94 31 71 -111 0
14 54 94 22 62 102 0
-14 54 94 -22 62 102 0
14 -54 94 22 -62 102 0
-14 -54 94 -22 -62 102 0
14 54 -94 22 62 -102 0
14 54 94 36 76 116 0
-14 54 94 -36 76 116 0
14 -54 94 36 -76 116 0
-14 -54 94 -36 -76 116 0
14 54 -94 36 76 -116 0
14 54 94 18 58 98 0
-14 54 94 -18 58 98 0
14 -54 94 18 -58 98 0
-14 -54 94 -18 -58 98 0
14 54 -94 18 58 -98 0
15 55 95 35 75 115 0
-15 55 95 -35 75 115 0
15 -55 95 35 -75 115 0
-15 -55 95 -35 -75 115 0
15 55 -95 35 75 -115 0
15 55 95 36 76 116 0
-15 55 95 -36 76 116 0
15 -55 95 36 -76 116 0
-15 -55 95 -36 -76 116 0
15 55 -95 36 76 -116 0
15 55 95 38 78 118 0
-15 55 95 -38 78 118 0
15 -55 95 38 -78 118 0
-15 -55 95 -38 -78 118 0
15 55 -95 38 78 -118 0
15 55 95 32 72 112 0
-15 55 95 -32 72 112 0
15 -55 95 32 -72 112 0
-15 -55 95 -32 -72 112 0
15 55 -95 32 72 -112 0
15 55 95 31 71 111 0
-15 55 95 -31 71 111 0
15 -55 95 31 -71 111 0
-15 -55 95 -31 -71 111 0
15 55 -95 31 71 -111 0
15 55 95 26 66 106 0
-15 55 95 -26 66 106 0
15 -55 95 26 -66 106 0
-15 -55 95 -26 -66 106 0
15 55 -95 26 66 -106 0
15 55 95 24 64 104 0
-15 55 95 -24 64 104 0
15 -55 95 24 -64 104 0
-15 -55 95 -24 -64 104 0
15 55 -95 24 64 -104 0
16 56 96 29 69 109 0
-16 56 96 -29 69 109 0
16 -56 96 29 -69 109 0
-16 -56 96 -29 -69 109 0
16 56 -96 29 69 -109 0
16 56 96 36 76 116 0
-16 56 96 -36 76 116 0
16 -56 96 36 -76 116 0
-16 -56 96 -36 -76 116 0
16 56 -96 36 76 -116 0
16 56 96 23 63 103 0
-16 56 96 -23 63 103 0
16 -56 96 23 -63 103 0
-16 -56 96 -23 -63 103 0
16 56 -96 23 63 -103 0
16 56 96 17 57 97 0
-16 56 96 -17 57 97 0
16 -56 96 17 -57 97 0
-16 -56 96 -17 -57 97 0
16 56 -96 17 57 -97 0
16 56 96 22 62 102 0
-16 56 96 -22 62 102 0
16 -56 96 22 -62 102 0
-16 -56 96 -22 -62 102 0
16 56 -96 22 62 -102 0
16 56 96 18 58 98 0
-16 56 96 -18 58 98 0
16 -56 96 18 -58 98 0
-16 -56 96 -18 -58 98 0
16 56 -96 18 58 -98 0
16 56 96 30 70 110 0
-16 56 96 -30 70 110 0
16 -56 96 30 -70 110 0
-16 -56 96 -30 -70 110 0
16 56 -96 30 70 -110 0
16 56 96 29 69 109 0
-16 56 96 -29 69 109 0
16 -56 96 29 -69 109 0
-16 -56 96 -29 -69 109 0
16 56 -96 29 69 -109 0
17 57 97 33 73 113 0
-17 57 97 -33 73 113 0
17 -57 97 33 -73 113 0
-17 -57 97 -33 -73 113 0
17 57 -97 33 73 -113 0
17 57 97 38 78 118 0
-17 57 97 -38 78 118 0
17 -57 97 38 -78 118 0
-17 -57 97 -38 -78 118 0
17 57 -97 38 78 -118 0
17 57 97 39 79 119 0
-17 57 97 -39 79 119 0
17 -57 97 39 -79 119 0
-17 -57 97 -39 -79 119 0
17 57 -97 39 79 -119 0
17 57 97 34 74 114 0
-17 57 97 -34 74 114 0
17 -57 97 34 -74 114 0
-17 -57 97 -34 -74 114 0
17 57 -97 34 74 -114 0
17 57 97 40 80 120 0
-17 57 97 -40 80 120 0
17 -57 97 40 -80 120 0
-17 -57 97 -40 -80 120 0
17 57 -97 40 80 -120 0
17 57 97 24 64 104 0
-17 57 97 -24 64 104 0
17 -57 97 24 -64 104 0
-17 -57 97 -24 -64 104 0
17 57 -97 24 64 -104 0
18 58 98 24 64 104 0
-18 58 98 -24 64 104 0
18 -58 98 24 -64 104 0
-18 -58 98 -24 -64 104 0
18 58 -98 24 64 -104 0
18 58 98 21 61 101 0
-18 58 98 -21 61 101 0
18 -58 98 21 -61 101 0
-18 -58 98 -21 -61 101 0
18 58 -98 21 61 -101 0
18 58 98 23 63 103 0
-18 58 98 -23 63 103 0
18 -58 98 23 -63 103 0
-18 -58 98 -23 -63 103 0
18 58 -98 23 63 -103 0
18 58 98 22 62 102 0
-18 58 98 -22 62 102 0
18 -58 98 22 -62 102 0
-18 -58 98 -22 -62 102 0
18 58 -98 22 62 -102 0
18 58 98 30 70 110 0
-18 58 98 -30 70 110 0
18 -58 98 30 -70 110 0
-18 -58 98 -30 -70 110 0
18 58 -98 30 70 -110 0
18 58 98 23 63 103 0
-18 58 98 -23 63 103 0
18 -58 98 23 -63 103 0
-18 -58 98 -23 -63 103 0
18 58 -98 23 63 -103 0
19 59 99 26 66 106 0
-19 59 99 -26 66 106 0
19 -59 99 26 -66 106 0
-19 -59 99 -26 -66 106 0
19 59 -99 26 66 -106 0
19 59 99 21 61 101 0
-19 59 99 -21 61 101 0
19 -59 99 21 -61 101 0
-19 -59 99 -21 -61 101 0
19 59 -99 21 61 -101 0
19 59 99 35 75 115 0
-19 59 99 -35 75 115 0
19 -59 99 35 -75 115 0
-19 -59 99 -35 -75 115 0
19 59 -99 35 75 -115 0
19 59 99 37 77 117 0
-19 59 99 -37 77 117 0
19 -59 99 37 -77 117 0
-19 -59 99 -37 -77 117 0
19 59 -99 37 77 -117 0
19 59 99 26 66 106 0
-19 59 99 -26 66 106 0
19 -59 99 26 -66 106 0
-19 -59 99 -26 -66 106 0
19 59 -99 26 66 -106 0
20 60 100 21 61 101 0
-20 60 100 -21 61 101 0
20 -60 100 21 -61 101 0
-20 -60 100 -21 -61 101 0
20 60 -100 21 61 -101 0
20 60 100 29 69 109 0
-20 60 100 -29 69 109 0
20 -60 100 29 -69 109 0
-20 -60 100 -29 -69 109 0
20 60 -100 29 69 -109 0
20 60 100 30 70 110 0
-20 60 100 -30 70 110 0
20 -60 100 30 -70 110 0
-20 -60 100 -30 -70 110 0
20 60 -100 30 70 -110 0
20 60 100 38 78 118 0
-20 60 100 -38 78 118 0
20 -60 100 38 -78 118 0
-20 -60 100 -38 -78 118 0
20 60 -100 38 78 -118 0
20 60 100 37 77 117 0
-20 60 100 -37 77 117 0
20 -60 100 37 -77 117 0
-20 -60 100 -37 -77 117 0
20 60 -100 37 77 -117 0
20 60 100 35 75 115 0
-20 60 100 -35 75 115 0
20 -60 100 35 -75 115 0
-20 -60 100 -35 -75 115 0
20 60 -100 35 75 -115 0
20 60 100 32 72 112 0
-20 60 100 -32 72 112 0
20 -60 100 32 -72 112 0
-20 -60 100 -32 -72 112 0
20 60 -100 32 72 -112 0
21 61 101 30 70 110 0
-21 61 101 -30 70 110 0
21 -61 101 30 -70 110 0
-21 -61 101 -30 -70 110 0
21 61 -101 30 70 -110 0
21 61 101 31 71 111 0
-21 61 101 -31 71 111 0
21 -61 101 31 -71 111 0
-21 -61 101 -31 -71 111 0
21 61 -101 31 71 -111 0
21 61 101 26 66 106 0
-21 61 101 -26 66 106 0
21 -61 101 26 -66 106 0
-21 -61 101 -26 -66 106 0
21 61 -101 26 66 -106 0
21 61 101 35 75 115 0
-21 61 101 -35 75 115 0
21 -61 101 35 -75 115 0
-21 -61 101 -35 -75 115 0
21 61 -101 35 75 -115 0
22 62 102 23 63 103 0
-22 62 102 -23 63 103 0
22 -62 102 23 -63 103 0
-22 -62 102 -23 -63 103 0
22 62 -102 23 63 -103 0
22 62 102 26 66 106 0
-22 62 102 -26 66 106 0
22 -62 102 26 -66 106 0
-22 -62 102 -26 -66 106 0
22 62 -102 26 66 -106 0
22 62 102 33 73 113 0
-22 62 102 -33 73 113 0
22 -62 102 33 -73 113 0
-22 -62 102 -33 -73 113 0
22 62 -102 33 73 -113 0
22 62 102 40 80 120 0
-22 62 102 -40 80 120 0
22 -62 102 40 -80 120 0
-22 -62 102 -40 -80 120 0
22 62 -102 40 80 -120 0
23 63 103 40 80 120 0
-23 63 103 -40 80 120 0
23 -63 103 40 -80 120 0
-23 -63 103 -40 -80 120 0
23 63 -103 40 80 -120 0
24 64 104 32 72 112 0
-24 64 104 -32 72 112 0
24 -64 104 32 -72 112 0
-24 -64 104 -32 -72 112 0
24 64 -104 32 72 -112 0
24 64 104 39 79 119 0
-24 64 104 -39 79 119 0
24 -64 104 39 -79 119 0
-24 -64 104 -39 -79 119 0
24 64 -104 39 79 -119 0
24 64 104 32 72 112 0
-24 64 104 -32 72 112 0
24 -64 104 32 -72 112 0
-24 -64 104 -32 -72 112 0
24 64 -104 32 72 -112 0
24 64 104 32 72 112 0
-24 64 104 -32 72 112 0
24 -64 104 32 -72 112 0
-24 -64 104 -32 -72 112 0
24 64 -104 32 72 -112 0
24 64 104 36 76 116 0
-24 64 104 -36 76 116 0
24 -64 104 36 -76 116 0
-24 -64 104 -36 -76 116 0
24 64 -104 36 76 -116 0
25 65 105 28 68 108 0
-25 65 105 -28 68 108 0
25 -65 105 28 -68 108 0
-25 -65 105 -28 -68 108 0
25 65 -105 28 68 -108 0
25 65 105 27 67 107 0
-25 65 105 -27 67 107 0
25 -65 105 27 -67 107 0
-25 -65 105 -27 -67 107 0
25 65 -105 27 67 -107 0
25 65 105 27 67 107 0
-25 65 105 -27 67 107 0
25 -65 105 27 -67 107 0
-25 -65 105 -27 -67 107 0
25 65 -105 27 67 -107 0
25 65 105 40 80 120 0
-25 65 105 -40 80 120 0
25 -65 105 40 -80 120 0
-25 -65 105 -40 -80 120 0
25 65 -105 40 80 -120 0
25 65 105 34 74 114 0
-25 65 105 -34 74 114 0
25 -65 105 34 -74 114 0
-25 -65 105 -34 -74 114 0
25 65 -105 34 74 -114 0
26 66 106 29 69 109 0
-26 66 106 -29 69 109 0
26 -66 106 29 -69 109 0
-26 -66 106 -29 -69 109 0
26 66 -106 29 69 -109 0
26 66 106 27 67 107 0
-26 66 106 -27 67 107 0
26 -66 106 27 -67 107 0
-26 -66 106 -27 -67 107 0
26 66 -106 27 67 -107 0
26 66 106 38 78 118 0
-26 66 106 -38 78 118 0
26 -66 106 38 -78 118 0
-26 -66 106 -38 -78 118 0
26 66 -106 38 78 -118 0
26 66 106 34 74 114 0
-26 66 106 -34 74 114 0
26 -66 106 34 -74 114 0
-26 -66 106 -34 -74 114 0
26 66 -106 34 74 -114 0
27 67 107 33 73 113 0
-27 67 107 -33 73 113 0
27 -67 107 33 -73 113 0
-27 -67 107 -33 -73 113 0
27 67 -107 33 73 -113 0
27 67 107 40 80 120 0
-27 67 107 -40 80 120 0
27 -67 107 40 -80 120 0
-27 -67 107 -40 -80 120 0
27 67 -107 40 80 -120 0
27 67 107 39 79 119 0
-27 67 107 -39 79 119 0
27 -67 107 39 -79 119 0
-27 -67 107 -39 -79 119 0
27 67 -107 39 79 -119 0
28 68 108 29 69 109 0
-28 68 108 -29 69 109 0
28 -68 108 29 -69 109 0
-28 -68 108 -29 -69 109 0
28 68 -108 29 69 -109 0
28 68 108 29 69 109 0
-28 68 108 -29 69 109 0
28 -68 108 29 -69 109 0
-28 -68 108 -29 -69 109 0
28 68 -108 29 69 -109 0
29 69 109 30 70 110 0
-29 69 109 -30 70 110 0
29 -69 109 30 -70 110 0
-29 -69 109 -30 -70 110 0
29 69 -109 30 70 -110 0
30 70 110 33 73 113 0
-30 70 110 -33 73 113 0
30 -70 110 33 -73 113 0
-30 -70 110 -33 -73 113 0
30 70 -110 33 73 -113 0
31 71 111 36 76 116 0
-31 71 111 -36 76 116 0
31 -71 111 36 -76 116 0
-31 -71 111 -36 -76 116 0
31 71 -111 36 76 -116 0
31 71 111 37 77 117 0
-31 71 111 -37 77 117 0
31 -71 111 37 -77 117 0
-31 -71 111 -37 -77 117 0
31 71 -111 37 77 -117 0
31 71 111 33 73 113 0
-31 71 111 -33 73 113 0
31 -71 111 33 -73 113 0
-31 -71 111 -33 -73 113 0
31 71 -111 33 73 -113 0
32 72 112 35 75 115 0
-32 72 112 -35 75 115 0
32 -72 112 35 -75 115 0
-32 -72 112 -35 -75 115 0
32 72 -112 35 75 -115 0
32 72 112 34 74 114 0
-32 72 112 -34 74 114 0
32 -72 112 34 -74 114 0
-32 -72 112 -34 -74 114 0
32 72 -112 34 74 -114 0
32 72 112 38 78 118 0
-32 72 112 -38 78 118 0
32 -72 112 38 -78 118 0
-32 -72 112 -38 -78 118 0
32 72 -112 38 78 -118 0
34 74 114 35 75 115 0
-34 74 114 -35 75 115 0
34 -74 114 35 -75 115 0
-34 -74 114 -35 -75 115 0
34 74 -114 35 75 -115 0
34 74 114 39 79 119 0
-34 74 114 -39 79 119 0
34 -74 114 39 -79 119 0
-34 -74 114 -39 -79 119 0
34 74 -114 39 79 -119 0
35 75 115 39 79 119 0
-35 75 115 -39 79 119 0
35 -75 115 39 -79 119 0
-35 -75 115 -39 -79 119 0
35 75 -115 39 79 -119 0
36 76 116 39 79 119 0
-36 76 116 -39 79 119 0
36 -76 116 39 -79 119 0
-36 -76 116 -39 -79 119 0
36 76 -116 39 79 -119 0
36 76 116 38 78 118 0
-36 76 116 -38 78 118 0
36 -76 116 38 -78 118 0
-36 -76 116 -38 -78 118 0
36 76 -116 38 78 -118 0
37 77 117 39 79 119 0
-37 77 117 -39 79 119 0
37 -77 117 39 -79 119 0
-37 -77 117 -39 -79 119 0
37 77 -117 39 79 -119 0
37 77 117 40 80 120 0
-37 77 117 -40 80 120 0
37 -77 117 40 -80 120 0
-37 -77 117 -40 -80 120 0
37 77 -117 40 80 -120 0
37 77 117 38 78 118 0
-37 77 117 -38 78 118 0
37 -77 117 38 -78 118 0
-37 -77 117 -38 -78 118 0
37 77 -117 38 78 -118 0
